38045
39958
39962
39959
39963
37145
37029
40301
38225
41007
37162
35801
39620
39170
39400
34504
39878
38219
38018
38020
38021
38022
38048
38053
38028
38029
38027
38030
38058
38056
38054
38057
37033
38024
38764
40837
38817
41178
37208
38635
35330
35331
38683
38629
38820
38198
38123
40095
39840
38543
38544
39250
39257
39708
38825
40339
38185
39914
36345
40111
40131
38824
38676
40349
41060
38166
39537
39219
40869
39196
40391
40313
37171
40855
40870
40854
40852
40867
38164
38165
40775
41381
37946
38685
38628
36887
39025
39942
38188
40026
38103
39474
34440
38167
41351
41135
36629
40405
33621
38101
38099
33900
39890
37172
38106
39472
38823
40572
37351
40425
40422
39680
36886
40448
28824
39150
39456
34647
39198
40426
36413
38157
39513
40494
38154
38155
37185
40932
40207
40209
35201
40062
35721
39965
38358
40180
40776